************************************************************************
file with basedata            : cr162_.bas
initial value random generator: 633244352
************************************************************************
projects                      :  1
jobs (incl. supersource/sink ):  18
horizon                       :  128
RESOURCES
  - renewable                 :  1   R
  - nonrenewable              :  2   N
  - doubly constrained        :  0   D
************************************************************************
PROJECT INFORMATION:
pronr.  #jobs rel.date duedate tardcost  MPM-Time
    1     16      0       18        9       18
************************************************************************
PRECEDENCE RELATIONS:
jobnr.    #modes  #successors   successors
   1        1          3           2   3   4
   2        3          3           5   9  10
   3        3          1           6
   4        3          3          10  12  13
   5        3          3          11  13  15
   6        3          3           7  14  16
   7        3          2           8  10
   8        3          1          12
   9        3          3          11  12  16
  10        3          2          15  17
  11        3          1          14
  12        3          2          15  17
  13        3          2          14  16
  14        3          1          17
  15        3          1          18
  16        3          1          18
  17        3          1          18
  18        1          0        
************************************************************************
REQUESTS/DURATIONS:
jobnr. mode duration  R 1  N 1  N 2
------------------------------------------------------------------------
  1      1     0       0    0    0
  2      1     3       5    9    7
         2     4       5    7    4
         3     8       4    6    1
  3      1     2       3    8    5
         2     8       3    4    5
         3    10       2    2    2
  4      1     7       9    9    5
         2     9       8    9    5
         3    10       7    9    4
  5      1     3       2    7    9
         2     4       2    7    3
         3     4       1    7    6
  6      1     2       1    5    3
         2     3       1    4    3
         3     4       1    4    2
  7      1     2       7    8    8
         2     6       6    7    8
         3     7       4    4    8
  8      1     3       7    2    7
         2     8       4    2    7
         3    10       3    1    6
  9      1     1       5    6    7
         2     9       5    4    7
         3    10       4    4    6
 10      1     1       5    3    5
         2     4       5    2    4
         3     9       3    2    4
 11      1     6       8    4   10
         2     7       7    4    8
         3     9       5    4    7
 12      1     2       7    9    4
         2     4       5    7    4
         3     8       3    4    4
 13      1     2       9    8    8
         2    10       3    6    8
         3    10       4    7    7
 14      1     3       5    9    8
         2     5       4    9    7
         3    10       3    8    7
 15      1     3       5    7    8
         2     4       2    7    7
         3     6       2    4    4
 16      1     1       4    4    5
         2     8       3    4    5
         3     9       3    3    4
 17      1     3       8    7    3
         2     4       5    7    2
         3     4       6    6    3
 18      1     0       0    0    0
************************************************************************
RESOURCEAVAILABILITIES:
  R 1  N 1  N 2
   18  105  102
************************************************************************
